c instance by G2
c solution = 01010001101010110001
c Known solution cost is 5231 
p cnf 20 20
w 499 698 809 249 851 154 401 837 590 711 827 282 217 838 894 253 433 846 419 666
-5 -11 17 0
-8 -1 5 0
-20 8 -4 0
-2 -4 -18 0
14 -4 20 0
-3 17 -11 0
19 2 -16 0
14 -17 -4 0
-9 -4 16 0
-20 5 9 0
15 -20 -11 0
-14 17 -11 0
-11 -10 -20 0
4 -9 -20 0
-8 13 -15 0
-11 -6 -4 0
17 -13 -12 0
17 6 11 0
3 1 -7 0
-19 -20 -13 0
